c BabySAT DPLL SAT Solver
c
c Copyright (c) 2026, Benjamin Deutsch
c Version 0.0.4 3f70528ad16f8c5ae9a5b9cc5ac28edf924451f6
c Compiled with 'g++ -Wall -std=c++11 -O3 -DNDEBUG'
c
c reading from 'cnfs/prime25.cnf'
c parsed header 'p cnf 131 370'
c
c             decisions             variables
c   seconds              conflicts            remaining
c
c *    0.00           0           0       130  99%
c d    0.00           1           0       100  76%
c d    0.00           2           0       100  76%
c 1    0.00           2           0       100  76%
c
s SATISFIABLE
v 1 -2 -3 4 5 -6 -7 8 -9 -10 -11 -12 -13 -14 15 16 -17 -18 -19 20 -21 22 23 -24 -25 -26 27 -28 -29 30 31 -32 -33 -34 -35 -36 -37 -38 -39 40 -41 -42 43 -44 45 -46 -47 -48 49 -50 -51 -52 53 -54 -55 56 -57 58 -59 -60 61 -62 63 -64 65 66 -67 -68 69 70 -71 -72 -73 -74 75 -76 -77 -78 79 -80 -81 82 -83 -84 -85 -86 87 -88 -89 90 -91 92 -93 -94 -95 -96 -97 98 -99 -100 101 -102 103 -104 105 -106 -107 108 -109 110 -111 -112 113 114 -115 -116 117 -118 -119 120 -121 122 -123 124 125 126 127 128 129 130 131 0
c
c conflicts:                     0         0.00 per second
c decisions:                     2       695.65 per second
c propagations:                  0         0.00 million per second
c
c process-time:               0.00 seconds
c
c exit code 10
